// set cell size
cx := 5e-9
cy := 66e-10
cz := 5e-9

// magnets - height along y, width along x, thickness along z
magnet_height := 300e-9
magnet_width := 100e-9
magnet_thickness := 50e-9

// nanotube 
// nanotube_width := 5e-9
// nanotube_height := 1820e-9

// position of magnets
x_displacement_magnet := 150e-9 
y_displacement_magnet := 530e-9  

// x position of nanotube
// x_displacement_nanotube := 0
// // z_disp is distance from  the substrate. 50 + 100 + 2.5 nm
// // want to move centre up the z axis so has half nanotube_width 
// z_displacement_nanotube := magnet_thickness + 100e-9 + nanotube_width/2

// want GridSize set in prime factors as mumax does FFT
// (x,y,z)
SetGridsize(300, 276, 64)
SetCellsize(cx, cy, cz)
